5495
5370
5429
5510
5521
5516
5509
5528
5465
5504
5458
5399
5346
5440
5468
5480
5416
5469
5462
5397
5425
5445
5394
5503
5442
5506
5503
5433
5475
5437
5451
5480
5417
5429
5411
5492
5449
5416
5432
5404
5455
5444
5533
5445
5442
5362
5488
5457
5446
5473
5467
5499
5347
5482
5442
5442
5413
5391
5444
5421
5434
5426
5398
5512
5492
5506
5405
5463
5440
5429
5466
5454
5398
5515
5496
5458
5425
5472
5427
5466
5460
5416
5502
5397
5468
5482
5401
5518
5402
5417
5479
5391
5463
5514
5403
5466
5479
5518
5491
5422
